(set-option :produce-models true)
(set-logic QF_UFLIA)
(declare-fun t0_0 () Int)
(declare-fun t10_0 () Int)
(declare-fun t11_0 () Int)
(declare-fun t12_0 () Int)
(declare-fun t13_0 () Int)
(declare-fun t14_0 () Int)
(declare-fun t15_0 () Int)
(declare-fun t16_0 () Int)
(declare-fun t17_0 () Int)
(declare-fun t18_0 () Int)
(declare-fun t1_0 () Int)
(declare-fun t2_0 () Int)
(declare-fun t3_0 () Int)
(declare-fun t4_0 () Int)
(declare-fun t5_0 () Int)
(declare-fun t6_0 () Int)
(declare-fun t7_0 () Int)
(declare-fun t8_0 () Int)
(declare-fun t9_0 () Int)
(declare-fun Drive (Int Int Int Int) Bool)
(declare-fun Drop (Int Int Int Int Int) Bool)
(declare-fun Lift (Int Int Int Int Int) Bool)
(declare-fun Load (Int Int Int Int Int) Bool)
(declare-fun Unload (Int Int Int Int Int) Bool)
(declare-fun at (Int Int) Int)
(declare-fun available (Int Int) Bool)
(declare-fun clear (Int Int) Bool)
(declare-fun current_load (Int Int) Int)
(declare-fun fuel_cost ( Int) Int)
(declare-fun in (Int Int) Int)
(declare-fun lifting (Int Int) Int)
(declare-fun load_limit (Int Int) Int)
(declare-fun on (Int Int) Int)
(declare-fun weight (Int Int) Int)
(declare-fun crate0 () Int)
(declare-fun crate1 () Int)
(declare-fun depot0 () Int)
(declare-fun distributor0 () Int)
(declare-fun distributor1 () Int)
(declare-fun hoist0 () Int)
(declare-fun hoist1 () Int)
(declare-fun hoist2 () Int)
(declare-fun pallet0 () Int)
(declare-fun pallet1 () Int)
(declare-fun pallet2 () Int)
(declare-fun truck0 () Int)
(declare-fun truck1 () Int)
(declare-fun t0_1 () Int)
(declare-fun t10_1 () Int)
(declare-fun t11_1 () Int)
(declare-fun t12_1 () Int)
(declare-fun t13_1 () Int)
(declare-fun t14_1 () Int)
(declare-fun t15_1 () Int)
(declare-fun t16_1 () Int)
(declare-fun t17_1 () Int)
(declare-fun t18_1 () Int)
(declare-fun t1_1 () Int)
(declare-fun t2_1 () Int)
(declare-fun t3_1 () Int)
(declare-fun t4_1 () Int)
(declare-fun t5_1 () Int)
(declare-fun t6_1 () Int)
(declare-fun t7_1 () Int)
(declare-fun t8_1 () Int)
(declare-fun t9_1 () Int)
(assert (or (= t0_0 12) (= t0_0 13) ))
(assert (or (= t10_0 3) (= t10_0 4) (= t10_0 5) ))
(assert (or (= t11_0 6) (= t11_0 7) (= t11_0 8) ))
(assert (or (= t12_0 1) (= t12_0 2) ))
(assert (or (= t13_0 12) (= t13_0 13) ))
(assert (or (= t14_0 3) (= t14_0 4) (= t14_0 5) ))
(assert (or (= t15_0 6) (= t15_0 7) (= t15_0 8) ))
(assert (or (= t16_0 1) (= t16_0 2) ))
(assert (or (= t17_0 12) (= t17_0 13) ))
(assert (or (= t18_0 3) (= t18_0 4) (= t18_0 5) ))
(assert (or (= t1_0 3) (= t1_0 4) (= t1_0 5) ))
(assert (or (= t2_0 3) (= t2_0 4) (= t2_0 5) ))
(assert (or (= t3_0 6) (= t3_0 7) (= t3_0 8) ))
(assert (or (= t4_0 1) (= t4_0 2) ))
(assert (or (= t5_0 9) (= t5_0 10) (= t5_0 11) (= t5_0 1) (= t5_0 2) ))
(assert (or (= t6_0 3) (= t6_0 4) (= t6_0 5) ))
(assert (or (= t7_0 6) (= t7_0 7) (= t7_0 8) ))
(assert (or (= t8_0 1) (= t8_0 2) ))
(assert (or (= t9_0 9) (= t9_0 10) (= t9_0 11) (= t9_0 1) (= t9_0 2) ))
(assert (= crate0 1))
(assert (= crate1 2))
(assert (= depot0 3))
(assert (= distributor0 4))
(assert (= distributor1 5))
(assert (= hoist0 6))
(assert (= hoist1 7))
(assert (= hoist2 8))
(assert (= pallet0 9))
(assert (= pallet1 10))
(assert (= pallet2 11))
(assert (= truck0 12))
(assert (= truck1 13))
(assert (= (at pallet0 0) depot0))
(assert (= (at pallet1 0) distributor0))
(assert (= (at pallet2 0) distributor1))
(assert (= (at truck0 0) distributor1))
(assert (= (at truck1 0) depot0))
(assert (= (current_load truck0 0) 0))
(assert (= (current_load truck1 0) 0))
(assert (= (load_limit truck0 0) 323))
(assert (= (load_limit truck1 0) 220))
(assert (= (at hoist0 0) depot0))
(assert (= (at hoist1 0) distributor0))
(assert (= (at hoist2 0) distributor1))
(assert (available hoist0 0))
(assert (available hoist1 0))
(assert (available hoist2 0))
(assert (= (at crate0 0) distributor0))
(assert (= (at crate1 0) depot0))
(assert (= (on crate0 0) pallet1))
(assert (= (on crate1 0) pallet0))
(assert (= (weight crate0 0) 11))
(assert (= (weight crate1 0) 86))
(assert (clear crate1 0))
(assert (clear crate0 0))
(assert (clear pallet2 0))
(assert (= (fuel_cost 0) 0))
(assert (= (in crate0 0) 0))
(assert (= (in crate1 0) 0))
(assert (= (lifting hoist0 0) 0))
(assert (= (lifting hoist1 0) 0))
(assert (= (lifting hoist2 0) 0))
(assert (= (available hoist0 0) true))
(assert (= (available hoist1 0) true))
(assert (= (available hoist2 0) true))
(assert (= (clear crate0 0) true))
(assert (= (clear crate1 0) true))
(assert (= (clear pallet0 0) false))
(assert (= (clear pallet1 0) false))
(assert (= (clear pallet2 0) true))
(assert (=> (Drive t0_0 t1_0 t2_0 0) (and (= (at t0_0 0) t1_0))) )
(assert (=> (Drop t3_0 t4_0 t5_0 t6_0 0) (and (= (at t3_0 0) t6_0) (= (at t5_0 0) t6_0) (clear t5_0 0) (= (lifting t3_0 0) t4_0))) )
(assert (=> (Lift t7_0 t8_0 t9_0 t10_0 0) (and (= (at t7_0 0) t10_0) (available t7_0 0) (= (at t8_0 0) t10_0) (= (on t8_0 0) t9_0) (clear t8_0 0))) )
(assert (=> (Load t11_0 t12_0 t13_0 t14_0 0) (and (= (at t11_0 0) t14_0) (= (at t13_0 0) t14_0) (= (lifting t11_0 0) t12_0) (<= (+ (current_load t13_0 0) (weight t12_0 0)) (load_limit t13_0 0)))) )
(assert (=> (Unload t15_0 t16_0 t17_0 t18_0 0) (and (= (at t15_0 0) t18_0) (= (at t17_0 0) t18_0) (available t15_0 0) (= (in t16_0 0) t17_0))) )
(assert (=> (and (Drive t0_0 t1_0 t2_0 0) true) (and (= (at t0_0 1) t2_0) (= (fuel_cost 1) (+ (fuel_cost 0) 10)))) )
(assert (=> (and (Drop t3_0 t4_0 t5_0 t6_0 0) true) (and (available t3_0 1) (= (lifting t3_0 1) 0) (= (at t4_0 1) t6_0) (not (clear t5_0 1)) (clear t4_0 1) (= (on t4_0 1) t5_0))) )
(assert (=> (and (Lift t7_0 t8_0 t9_0 t10_0 0) true) (and (= (at t8_0 1) 0) (= (lifting t7_0 1) t8_0) (not (clear t8_0 1)) (not (available t7_0 1)) (clear t9_0 1) (= (on t8_0 1) 0) (= (fuel_cost 1) (+ (fuel_cost 0) 1)))) )
(assert (=> (and (Load t11_0 t12_0 t13_0 t14_0 0) true) (and (= (lifting t11_0 1) 0) (= (in t12_0 1) t13_0) (available t11_0 1) (= (current_load t13_0 1) (+ (current_load t13_0 0) (weight t12_0 0))))) )
(assert (=> (and (Unload t15_0 t16_0 t17_0 t18_0 0) true) (and (= (lifting t15_0 1) t16_0) (= (in t16_0 1) 0) (not (available t15_0 1)) (= (current_load t17_0 1) (- (current_load t17_0 0) (weight t16_0 0))))) )
(assert (=> (and (not (available hoist0 0)) (available hoist0 1)) (or  (and (Drop t3_0 t4_0 t5_0 t6_0 0) (= t3_0 hoist0) )  (and (Load t11_0 t12_0 t13_0 t14_0 0) (= t11_0 hoist0) ) )) )
(assert (=> (and (available hoist0 0) (not (available hoist0 1))) (or  (and (Lift t7_0 t8_0 t9_0 t10_0 0)(= t7_0 hoist0) ) (and (Unload t15_0 t16_0 t17_0 t18_0 0)(= t15_0 hoist0) ))) )
(assert (=> (and (not (available hoist1 0)) (available hoist1 1)) (or  (and (Drop t3_0 t4_0 t5_0 t6_0 0) (= t3_0 hoist1) )  (and (Load t11_0 t12_0 t13_0 t14_0 0) (= t11_0 hoist1) ) )) )
(assert (=> (and (available hoist1 0) (not (available hoist1 1))) (or  (and (Lift t7_0 t8_0 t9_0 t10_0 0)(= t7_0 hoist1) ) (and (Unload t15_0 t16_0 t17_0 t18_0 0)(= t15_0 hoist1) ))) )
(assert (=> (and (not (available hoist2 0)) (available hoist2 1)) (or  (and (Drop t3_0 t4_0 t5_0 t6_0 0) (= t3_0 hoist2) )  (and (Load t11_0 t12_0 t13_0 t14_0 0) (= t11_0 hoist2) ) )) )
(assert (=> (and (available hoist2 0) (not (available hoist2 1))) (or  (and (Lift t7_0 t8_0 t9_0 t10_0 0)(= t7_0 hoist2) ) (and (Unload t15_0 t16_0 t17_0 t18_0 0)(= t15_0 hoist2) ))) )
(assert (=> (and (not (clear crate0 0)) (clear crate0 1)) (or  (and (Drop t3_0 t4_0 t5_0 t6_0 0) (= t4_0 crate0) )  (and (Lift t7_0 t8_0 t9_0 t10_0 0) (= t9_0 crate0) ) )) )
(assert (=> (and (clear crate0 0) (not (clear crate0 1))) (or  (and (Drop t3_0 t4_0 t5_0 t6_0 0)(= t5_0 crate0) ) (and (Lift t7_0 t8_0 t9_0 t10_0 0)(= t8_0 crate0) ))) )
(assert (=> (and (not (clear crate1 0)) (clear crate1 1)) (or  (and (Drop t3_0 t4_0 t5_0 t6_0 0) (= t4_0 crate1) )  (and (Lift t7_0 t8_0 t9_0 t10_0 0) (= t9_0 crate1) ) )) )
(assert (=> (and (clear crate1 0) (not (clear crate1 1))) (or  (and (Drop t3_0 t4_0 t5_0 t6_0 0)(= t5_0 crate1) ) (and (Lift t7_0 t8_0 t9_0 t10_0 0)(= t8_0 crate1) ))) )
(assert (=> (and (not (clear pallet0 0)) (clear pallet0 1)) (or  (and (Drop t3_0 t4_0 t5_0 t6_0 0) (= t4_0 pallet0) )  (and (Lift t7_0 t8_0 t9_0 t10_0 0) (= t9_0 pallet0) ) )) )
(assert (=> (and (clear pallet0 0) (not (clear pallet0 1))) (or  (and (Drop t3_0 t4_0 t5_0 t6_0 0)(= t5_0 pallet0) ) (and (Lift t7_0 t8_0 t9_0 t10_0 0)(= t8_0 pallet0) ))) )
(assert (=> (and (not (clear pallet1 0)) (clear pallet1 1)) (or  (and (Drop t3_0 t4_0 t5_0 t6_0 0) (= t4_0 pallet1) )  (and (Lift t7_0 t8_0 t9_0 t10_0 0) (= t9_0 pallet1) ) )) )
(assert (=> (and (clear pallet1 0) (not (clear pallet1 1))) (or  (and (Drop t3_0 t4_0 t5_0 t6_0 0)(= t5_0 pallet1) ) (and (Lift t7_0 t8_0 t9_0 t10_0 0)(= t8_0 pallet1) ))) )
(assert (=> (and (not (clear pallet2 0)) (clear pallet2 1)) (or  (and (Drop t3_0 t4_0 t5_0 t6_0 0) (= t4_0 pallet2) )  (and (Lift t7_0 t8_0 t9_0 t10_0 0) (= t9_0 pallet2) ) )) )
(assert (=> (and (clear pallet2 0) (not (clear pallet2 1))) (or  (and (Drop t3_0 t4_0 t5_0 t6_0 0)(= t5_0 pallet2) ) (and (Lift t7_0 t8_0 t9_0 t10_0 0)(= t8_0 pallet2) ))) )
(assert (=> (distinct (at crate0 0) (at crate0 1)) (or (and (Drive t0_0 t1_0 t2_0 0)(= t0_0 crate0) ) (and (Drop t3_0 t4_0 t5_0 t6_0 0)(= t4_0 crate0) ) (and (Lift t7_0 t8_0 t9_0 t10_0 0)(= t8_0 crate0) ) )) )
(assert (=> (distinct (at crate1 0) (at crate1 1)) (or (and (Drive t0_0 t1_0 t2_0 0)(= t0_0 crate1) ) (and (Drop t3_0 t4_0 t5_0 t6_0 0)(= t4_0 crate1) ) (and (Lift t7_0 t8_0 t9_0 t10_0 0)(= t8_0 crate1) ) )) )
(assert (=> (distinct (at hoist0 0) (at hoist0 1)) (or (and (Drive t0_0 t1_0 t2_0 0)(= t0_0 hoist0) ) (and (Drop t3_0 t4_0 t5_0 t6_0 0)(= t4_0 hoist0) ) (and (Lift t7_0 t8_0 t9_0 t10_0 0)(= t8_0 hoist0) ) )) )
(assert (=> (distinct (at hoist1 0) (at hoist1 1)) (or (and (Drive t0_0 t1_0 t2_0 0)(= t0_0 hoist1) ) (and (Drop t3_0 t4_0 t5_0 t6_0 0)(= t4_0 hoist1) ) (and (Lift t7_0 t8_0 t9_0 t10_0 0)(= t8_0 hoist1) ) )) )
(assert (=> (distinct (at hoist2 0) (at hoist2 1)) (or (and (Drive t0_0 t1_0 t2_0 0)(= t0_0 hoist2) ) (and (Drop t3_0 t4_0 t5_0 t6_0 0)(= t4_0 hoist2) ) (and (Lift t7_0 t8_0 t9_0 t10_0 0)(= t8_0 hoist2) ) )) )
(assert (=> (distinct (at pallet0 0) (at pallet0 1)) (or (and (Drive t0_0 t1_0 t2_0 0)(= t0_0 pallet0) ) (and (Drop t3_0 t4_0 t5_0 t6_0 0)(= t4_0 pallet0) ) (and (Lift t7_0 t8_0 t9_0 t10_0 0)(= t8_0 pallet0) ) )) )
(assert (=> (distinct (at pallet1 0) (at pallet1 1)) (or (and (Drive t0_0 t1_0 t2_0 0)(= t0_0 pallet1) ) (and (Drop t3_0 t4_0 t5_0 t6_0 0)(= t4_0 pallet1) ) (and (Lift t7_0 t8_0 t9_0 t10_0 0)(= t8_0 pallet1) ) )) )
(assert (=> (distinct (at pallet2 0) (at pallet2 1)) (or (and (Drive t0_0 t1_0 t2_0 0)(= t0_0 pallet2) ) (and (Drop t3_0 t4_0 t5_0 t6_0 0)(= t4_0 pallet2) ) (and (Lift t7_0 t8_0 t9_0 t10_0 0)(= t8_0 pallet2) ) )) )
(assert (=> (distinct (at truck0 0) (at truck0 1)) (or (and (Drive t0_0 t1_0 t2_0 0)(= t0_0 truck0) ) (and (Drop t3_0 t4_0 t5_0 t6_0 0)(= t4_0 truck0) ) (and (Lift t7_0 t8_0 t9_0 t10_0 0)(= t8_0 truck0) ) )) )
(assert (=> (distinct (at truck1 0) (at truck1 1)) (or (and (Drive t0_0 t1_0 t2_0 0)(= t0_0 truck1) ) (and (Drop t3_0 t4_0 t5_0 t6_0 0)(= t4_0 truck1) ) (and (Lift t7_0 t8_0 t9_0 t10_0 0)(= t8_0 truck1) ) )) )
(assert (=> (distinct (current_load truck0 0) (current_load truck0 1)) (or (and (Load t11_0 t12_0 t13_0 t14_0 0)(= t13_0 truck0) ) (and (Unload t15_0 t16_0 t17_0 t18_0 0)(= t17_0 truck0) ) )) )
(assert (=> (distinct (current_load truck1 0) (current_load truck1 1)) (or (and (Load t11_0 t12_0 t13_0 t14_0 0)(= t13_0 truck1) ) (and (Unload t15_0 t16_0 t17_0 t18_0 0)(= t17_0 truck1) ) )) )
(assert (=> (distinct (fuel_cost 0) (fuel_cost 1)) (or (and (Drive t0_0 t1_0 t2_0 0)) (and (Lift t7_0 t8_0 t9_0 t10_0 0)) )) )
(assert (=> (distinct (in crate0 0) (in crate0 1)) (or (and (Load t11_0 t12_0 t13_0 t14_0 0)(= t12_0 crate0) ) (and (Unload t15_0 t16_0 t17_0 t18_0 0)(= t16_0 crate0) ) )) )
(assert (=> (distinct (in crate1 0) (in crate1 1)) (or (and (Load t11_0 t12_0 t13_0 t14_0 0)(= t12_0 crate1) ) (and (Unload t15_0 t16_0 t17_0 t18_0 0)(= t16_0 crate1) ) )) )
(assert (=> (distinct (lifting hoist0 0) (lifting hoist0 1)) (or (and (Drop t3_0 t4_0 t5_0 t6_0 0)(= t3_0 hoist0) ) (and (Lift t7_0 t8_0 t9_0 t10_0 0)(= t7_0 hoist0) ) (and (Load t11_0 t12_0 t13_0 t14_0 0)(= t11_0 hoist0) ) (and (Unload t15_0 t16_0 t17_0 t18_0 0)(= t15_0 hoist0) ) )) )
(assert (=> (distinct (lifting hoist1 0) (lifting hoist1 1)) (or (and (Drop t3_0 t4_0 t5_0 t6_0 0)(= t3_0 hoist1) ) (and (Lift t7_0 t8_0 t9_0 t10_0 0)(= t7_0 hoist1) ) (and (Load t11_0 t12_0 t13_0 t14_0 0)(= t11_0 hoist1) ) (and (Unload t15_0 t16_0 t17_0 t18_0 0)(= t15_0 hoist1) ) )) )
(assert (=> (distinct (lifting hoist2 0) (lifting hoist2 1)) (or (and (Drop t3_0 t4_0 t5_0 t6_0 0)(= t3_0 hoist2) ) (and (Lift t7_0 t8_0 t9_0 t10_0 0)(= t7_0 hoist2) ) (and (Load t11_0 t12_0 t13_0 t14_0 0)(= t11_0 hoist2) ) (and (Unload t15_0 t16_0 t17_0 t18_0 0)(= t15_0 hoist2) ) )) )
(assert (= (load_limit truck0 0) (load_limit truck0 1)) )
(assert (= (load_limit truck1 0) (load_limit truck1 1)) )
(assert (=> (distinct (on crate0 0) (on crate0 1)) (or (and (Drop t3_0 t4_0 t5_0 t6_0 0)(= t4_0 crate0) ) (and (Lift t7_0 t8_0 t9_0 t10_0 0)(= t8_0 crate0) ) )) )
(assert (=> (distinct (on crate1 0) (on crate1 1)) (or (and (Drop t3_0 t4_0 t5_0 t6_0 0)(= t4_0 crate1) ) (and (Lift t7_0 t8_0 t9_0 t10_0 0)(= t8_0 crate1) ) )) )
(assert (= (weight crate0 0) (weight crate0 1)) )
(assert (= (weight crate1 0) (weight crate1 1)) )
(assert (or (Drive t0_0 t1_0 t2_0 0) (Drop t3_0 t4_0 t5_0 t6_0 0) (Lift t7_0 t8_0 t9_0 t10_0 0) (Load t11_0 t12_0 t13_0 t14_0 0) (Unload t15_0 t16_0 t17_0 t18_0 0) ) )
(assert (or (not (Drive t0_0 t1_0 t2_0 0)) (not (Drop t3_0 t4_0 t5_0 t6_0 0))) )
(assert (or (not (Drive t0_0 t1_0 t2_0 0)) (not (Lift t7_0 t8_0 t9_0 t10_0 0))) )
(assert (or (not (Drive t0_0 t1_0 t2_0 0)) (not (Load t11_0 t12_0 t13_0 t14_0 0))) )
(assert (or (not (Drive t0_0 t1_0 t2_0 0)) (not (Unload t15_0 t16_0 t17_0 t18_0 0))) )
(assert (or (not (Drop t3_0 t4_0 t5_0 t6_0 0)) (not (Lift t7_0 t8_0 t9_0 t10_0 0))) )
(assert (or (not (Drop t3_0 t4_0 t5_0 t6_0 0)) (not (Load t11_0 t12_0 t13_0 t14_0 0))) )
(assert (or (not (Drop t3_0 t4_0 t5_0 t6_0 0)) (not (Unload t15_0 t16_0 t17_0 t18_0 0))) )
(assert (or (not (Lift t7_0 t8_0 t9_0 t10_0 0)) (not (Load t11_0 t12_0 t13_0 t14_0 0))) )
(assert (or (not (Lift t7_0 t8_0 t9_0 t10_0 0)) (not (Unload t15_0 t16_0 t17_0 t18_0 0))) )
(assert (or (not (Load t11_0 t12_0 t13_0 t14_0 0)) (not (Unload t15_0 t16_0 t17_0 t18_0 0))) )
(assert (or (= t0_1 12) (= t0_1 13) ))
(assert (or (= t10_1 3) (= t10_1 4) (= t10_1 5) ))
(assert (or (= t11_1 6) (= t11_1 7) (= t11_1 8) ))
(assert (or (= t12_1 1) (= t12_1 2) ))
(assert (or (= t13_1 12) (= t13_1 13) ))
(assert (or (= t14_1 3) (= t14_1 4) (= t14_1 5) ))
(assert (or (= t15_1 6) (= t15_1 7) (= t15_1 8) ))
(assert (or (= t16_1 1) (= t16_1 2) ))
(assert (or (= t17_1 12) (= t17_1 13) ))
(assert (or (= t18_1 3) (= t18_1 4) (= t18_1 5) ))
(assert (or (= t1_1 3) (= t1_1 4) (= t1_1 5) ))
(assert (or (= t2_1 3) (= t2_1 4) (= t2_1 5) ))
(assert (or (= t3_1 6) (= t3_1 7) (= t3_1 8) ))
(assert (or (= t4_1 1) (= t4_1 2) ))
(assert (or (= t5_1 9) (= t5_1 10) (= t5_1 11) (= t5_1 1) (= t5_1 2) ))
(assert (or (= t6_1 3) (= t6_1 4) (= t6_1 5) ))
(assert (or (= t7_1 6) (= t7_1 7) (= t7_1 8) ))
(assert (or (= t8_1 1) (= t8_1 2) ))
(assert (or (= t9_1 9) (= t9_1 10) (= t9_1 11) (= t9_1 1) (= t9_1 2) ))
(assert (=> (Drive t0_1 t1_1 t2_1 1) (and (= (at t0_1 1) t1_1))) )
(assert (=> (Drop t3_1 t4_1 t5_1 t6_1 1) (and (= (at t3_1 1) t6_1) (= (at t5_1 1) t6_1) (clear t5_1 1) (= (lifting t3_1 1) t4_1))) )
(assert (=> (Lift t7_1 t8_1 t9_1 t10_1 1) (and (= (at t7_1 1) t10_1) (available t7_1 1) (= (at t8_1 1) t10_1) (= (on t8_1 1) t9_1) (clear t8_1 1))) )
(assert (=> (Load t11_1 t12_1 t13_1 t14_1 1) (and (= (at t11_1 1) t14_1) (= (at t13_1 1) t14_1) (= (lifting t11_1 1) t12_1) (<= (+ (current_load t13_1 1) (weight t12_1 1)) (load_limit t13_1 1)))) )
(assert (=> (Unload t15_1 t16_1 t17_1 t18_1 1) (and (= (at t15_1 1) t18_1) (= (at t17_1 1) t18_1) (available t15_1 1) (= (in t16_1 1) t17_1))) )
(assert (=> (and (Drive t0_1 t1_1 t2_1 1) true) (and (= (at t0_1 2) t2_1) (= (fuel_cost 2) (+ (fuel_cost 1) 10)))) )
(assert (=> (and (Drop t3_1 t4_1 t5_1 t6_1 1) true) (and (available t3_1 2) (= (lifting t3_1 2) 0) (= (at t4_1 2) t6_1) (not (clear t5_1 2)) (clear t4_1 2) (= (on t4_1 2) t5_1))) )
(assert (=> (and (Lift t7_1 t8_1 t9_1 t10_1 1) true) (and (= (at t8_1 2) 0) (= (lifting t7_1 2) t8_1) (not (clear t8_1 2)) (not (available t7_1 2)) (clear t9_1 2) (= (on t8_1 2) 0) (= (fuel_cost 2) (+ (fuel_cost 1) 1)))) )
(assert (=> (and (Load t11_1 t12_1 t13_1 t14_1 1) true) (and (= (lifting t11_1 2) 0) (= (in t12_1 2) t13_1) (available t11_1 2) (= (current_load t13_1 2) (+ (current_load t13_1 1) (weight t12_1 1))))) )
(assert (=> (and (Unload t15_1 t16_1 t17_1 t18_1 1) true) (and (= (lifting t15_1 2) t16_1) (= (in t16_1 2) 0) (not (available t15_1 2)) (= (current_load t17_1 2) (- (current_load t17_1 1) (weight t16_1 1))))) )
(assert (=> (and (not (available hoist0 1)) (available hoist0 2)) (or  (and (Drop t3_1 t4_1 t5_1 t6_1 1) (= t3_1 hoist0) )  (and (Load t11_1 t12_1 t13_1 t14_1 1) (= t11_1 hoist0) ) )) )
(assert (=> (and (available hoist0 1) (not (available hoist0 2))) (or  (and (Lift t7_1 t8_1 t9_1 t10_1 1)(= t7_1 hoist0) ) (and (Unload t15_1 t16_1 t17_1 t18_1 1)(= t15_1 hoist0) ))) )
(assert (=> (and (not (available hoist1 1)) (available hoist1 2)) (or  (and (Drop t3_1 t4_1 t5_1 t6_1 1) (= t3_1 hoist1) )  (and (Load t11_1 t12_1 t13_1 t14_1 1) (= t11_1 hoist1) ) )) )
(assert (=> (and (available hoist1 1) (not (available hoist1 2))) (or  (and (Lift t7_1 t8_1 t9_1 t10_1 1)(= t7_1 hoist1) ) (and (Unload t15_1 t16_1 t17_1 t18_1 1)(= t15_1 hoist1) ))) )
(assert (=> (and (not (available hoist2 1)) (available hoist2 2)) (or  (and (Drop t3_1 t4_1 t5_1 t6_1 1) (= t3_1 hoist2) )  (and (Load t11_1 t12_1 t13_1 t14_1 1) (= t11_1 hoist2) ) )) )
(assert (=> (and (available hoist2 1) (not (available hoist2 2))) (or  (and (Lift t7_1 t8_1 t9_1 t10_1 1)(= t7_1 hoist2) ) (and (Unload t15_1 t16_1 t17_1 t18_1 1)(= t15_1 hoist2) ))) )
(assert (=> (and (not (clear crate0 1)) (clear crate0 2)) (or  (and (Drop t3_1 t4_1 t5_1 t6_1 1) (= t4_1 crate0) )  (and (Lift t7_1 t8_1 t9_1 t10_1 1) (= t9_1 crate0) ) )) )
(assert (=> (and (clear crate0 1) (not (clear crate0 2))) (or  (and (Drop t3_1 t4_1 t5_1 t6_1 1)(= t5_1 crate0) ) (and (Lift t7_1 t8_1 t9_1 t10_1 1)(= t8_1 crate0) ))) )
(assert (=> (and (not (clear crate1 1)) (clear crate1 2)) (or  (and (Drop t3_1 t4_1 t5_1 t6_1 1) (= t4_1 crate1) )  (and (Lift t7_1 t8_1 t9_1 t10_1 1) (= t9_1 crate1) ) )) )
(assert (=> (and (clear crate1 1) (not (clear crate1 2))) (or  (and (Drop t3_1 t4_1 t5_1 t6_1 1)(= t5_1 crate1) ) (and (Lift t7_1 t8_1 t9_1 t10_1 1)(= t8_1 crate1) ))) )
(assert (=> (and (not (clear pallet0 1)) (clear pallet0 2)) (or  (and (Drop t3_1 t4_1 t5_1 t6_1 1) (= t4_1 pallet0) )  (and (Lift t7_1 t8_1 t9_1 t10_1 1) (= t9_1 pallet0) ) )) )
(assert (=> (and (clear pallet0 1) (not (clear pallet0 2))) (or  (and (Drop t3_1 t4_1 t5_1 t6_1 1)(= t5_1 pallet0) ) (and (Lift t7_1 t8_1 t9_1 t10_1 1)(= t8_1 pallet0) ))) )
(assert (=> (and (not (clear pallet1 1)) (clear pallet1 2)) (or  (and (Drop t3_1 t4_1 t5_1 t6_1 1) (= t4_1 pallet1) )  (and (Lift t7_1 t8_1 t9_1 t10_1 1) (= t9_1 pallet1) ) )) )
(assert (=> (and (clear pallet1 1) (not (clear pallet1 2))) (or  (and (Drop t3_1 t4_1 t5_1 t6_1 1)(= t5_1 pallet1) ) (and (Lift t7_1 t8_1 t9_1 t10_1 1)(= t8_1 pallet1) ))) )
(assert (=> (and (not (clear pallet2 1)) (clear pallet2 2)) (or  (and (Drop t3_1 t4_1 t5_1 t6_1 1) (= t4_1 pallet2) )  (and (Lift t7_1 t8_1 t9_1 t10_1 1) (= t9_1 pallet2) ) )) )
(assert (=> (and (clear pallet2 1) (not (clear pallet2 2))) (or  (and (Drop t3_1 t4_1 t5_1 t6_1 1)(= t5_1 pallet2) ) (and (Lift t7_1 t8_1 t9_1 t10_1 1)(= t8_1 pallet2) ))) )
(assert (=> (distinct (at crate0 1) (at crate0 2)) (or (and (Drive t0_1 t1_1 t2_1 1)(= t0_1 crate0) ) (and (Drop t3_1 t4_1 t5_1 t6_1 1)(= t4_1 crate0) ) (and (Lift t7_1 t8_1 t9_1 t10_1 1)(= t8_1 crate0) ) )) )
(assert (=> (distinct (at crate1 1) (at crate1 2)) (or (and (Drive t0_1 t1_1 t2_1 1)(= t0_1 crate1) ) (and (Drop t3_1 t4_1 t5_1 t6_1 1)(= t4_1 crate1) ) (and (Lift t7_1 t8_1 t9_1 t10_1 1)(= t8_1 crate1) ) )) )
(assert (=> (distinct (at hoist0 1) (at hoist0 2)) (or (and (Drive t0_1 t1_1 t2_1 1)(= t0_1 hoist0) ) (and (Drop t3_1 t4_1 t5_1 t6_1 1)(= t4_1 hoist0) ) (and (Lift t7_1 t8_1 t9_1 t10_1 1)(= t8_1 hoist0) ) )) )
(assert (=> (distinct (at hoist1 1) (at hoist1 2)) (or (and (Drive t0_1 t1_1 t2_1 1)(= t0_1 hoist1) ) (and (Drop t3_1 t4_1 t5_1 t6_1 1)(= t4_1 hoist1) ) (and (Lift t7_1 t8_1 t9_1 t10_1 1)(= t8_1 hoist1) ) )) )
(assert (=> (distinct (at hoist2 1) (at hoist2 2)) (or (and (Drive t0_1 t1_1 t2_1 1)(= t0_1 hoist2) ) (and (Drop t3_1 t4_1 t5_1 t6_1 1)(= t4_1 hoist2) ) (and (Lift t7_1 t8_1 t9_1 t10_1 1)(= t8_1 hoist2) ) )) )
(assert (=> (distinct (at pallet0 1) (at pallet0 2)) (or (and (Drive t0_1 t1_1 t2_1 1)(= t0_1 pallet0) ) (and (Drop t3_1 t4_1 t5_1 t6_1 1)(= t4_1 pallet0) ) (and (Lift t7_1 t8_1 t9_1 t10_1 1)(= t8_1 pallet0) ) )) )
(assert (=> (distinct (at pallet1 1) (at pallet1 2)) (or (and (Drive t0_1 t1_1 t2_1 1)(= t0_1 pallet1) ) (and (Drop t3_1 t4_1 t5_1 t6_1 1)(= t4_1 pallet1) ) (and (Lift t7_1 t8_1 t9_1 t10_1 1)(= t8_1 pallet1) ) )) )
(assert (=> (distinct (at pallet2 1) (at pallet2 2)) (or (and (Drive t0_1 t1_1 t2_1 1)(= t0_1 pallet2) ) (and (Drop t3_1 t4_1 t5_1 t6_1 1)(= t4_1 pallet2) ) (and (Lift t7_1 t8_1 t9_1 t10_1 1)(= t8_1 pallet2) ) )) )
(assert (=> (distinct (at truck0 1) (at truck0 2)) (or (and (Drive t0_1 t1_1 t2_1 1)(= t0_1 truck0) ) (and (Drop t3_1 t4_1 t5_1 t6_1 1)(= t4_1 truck0) ) (and (Lift t7_1 t8_1 t9_1 t10_1 1)(= t8_1 truck0) ) )) )
(assert (=> (distinct (at truck1 1) (at truck1 2)) (or (and (Drive t0_1 t1_1 t2_1 1)(= t0_1 truck1) ) (and (Drop t3_1 t4_1 t5_1 t6_1 1)(= t4_1 truck1) ) (and (Lift t7_1 t8_1 t9_1 t10_1 1)(= t8_1 truck1) ) )) )
(assert (=> (distinct (current_load truck0 1) (current_load truck0 2)) (or (and (Load t11_1 t12_1 t13_1 t14_1 1)(= t13_1 truck0) ) (and (Unload t15_1 t16_1 t17_1 t18_1 1)(= t17_1 truck0) ) )) )
(assert (=> (distinct (current_load truck1 1) (current_load truck1 2)) (or (and (Load t11_1 t12_1 t13_1 t14_1 1)(= t13_1 truck1) ) (and (Unload t15_1 t16_1 t17_1 t18_1 1)(= t17_1 truck1) ) )) )
(assert (=> (distinct (fuel_cost 1) (fuel_cost 2)) (or (and (Drive t0_1 t1_1 t2_1 1)) (and (Lift t7_1 t8_1 t9_1 t10_1 1)) )) )
(assert (=> (distinct (in crate0 1) (in crate0 2)) (or (and (Load t11_1 t12_1 t13_1 t14_1 1)(= t12_1 crate0) ) (and (Unload t15_1 t16_1 t17_1 t18_1 1)(= t16_1 crate0) ) )) )
(assert (=> (distinct (in crate1 1) (in crate1 2)) (or (and (Load t11_1 t12_1 t13_1 t14_1 1)(= t12_1 crate1) ) (and (Unload t15_1 t16_1 t17_1 t18_1 1)(= t16_1 crate1) ) )) )
(assert (=> (distinct (lifting hoist0 1) (lifting hoist0 2)) (or (and (Drop t3_1 t4_1 t5_1 t6_1 1)(= t3_1 hoist0) ) (and (Lift t7_1 t8_1 t9_1 t10_1 1)(= t7_1 hoist0) ) (and (Load t11_1 t12_1 t13_1 t14_1 1)(= t11_1 hoist0) ) (and (Unload t15_1 t16_1 t17_1 t18_1 1)(= t15_1 hoist0) ) )) )
(assert (=> (distinct (lifting hoist1 1) (lifting hoist1 2)) (or (and (Drop t3_1 t4_1 t5_1 t6_1 1)(= t3_1 hoist1) ) (and (Lift t7_1 t8_1 t9_1 t10_1 1)(= t7_1 hoist1) ) (and (Load t11_1 t12_1 t13_1 t14_1 1)(= t11_1 hoist1) ) (and (Unload t15_1 t16_1 t17_1 t18_1 1)(= t15_1 hoist1) ) )) )
(assert (=> (distinct (lifting hoist2 1) (lifting hoist2 2)) (or (and (Drop t3_1 t4_1 t5_1 t6_1 1)(= t3_1 hoist2) ) (and (Lift t7_1 t8_1 t9_1 t10_1 1)(= t7_1 hoist2) ) (and (Load t11_1 t12_1 t13_1 t14_1 1)(= t11_1 hoist2) ) (and (Unload t15_1 t16_1 t17_1 t18_1 1)(= t15_1 hoist2) ) )) )
(assert (= (load_limit truck0 1) (load_limit truck0 2)) )
(assert (= (load_limit truck1 1) (load_limit truck1 2)) )
(assert (=> (distinct (on crate0 1) (on crate0 2)) (or (and (Drop t3_1 t4_1 t5_1 t6_1 1)(= t4_1 crate0) ) (and (Lift t7_1 t8_1 t9_1 t10_1 1)(= t8_1 crate0) ) )) )
(assert (=> (distinct (on crate1 1) (on crate1 2)) (or (and (Drop t3_1 t4_1 t5_1 t6_1 1)(= t4_1 crate1) ) (and (Lift t7_1 t8_1 t9_1 t10_1 1)(= t8_1 crate1) ) )) )
(assert (= (weight crate0 1) (weight crate0 2)) )
(assert (= (weight crate1 1) (weight crate1 2)) )
(assert (or (Drive t0_1 t1_1 t2_1 1) (Drop t3_1 t4_1 t5_1 t6_1 1) (Lift t7_1 t8_1 t9_1 t10_1 1) (Load t11_1 t12_1 t13_1 t14_1 1) (Unload t15_1 t16_1 t17_1 t18_1 1) ) )
(assert (or (not (Drive t0_1 t1_1 t2_1 1)) (not (Drop t3_1 t4_1 t5_1 t6_1 1))) )
(assert (or (not (Drive t0_1 t1_1 t2_1 1)) (not (Lift t7_1 t8_1 t9_1 t10_1 1))) )
(assert (or (not (Drive t0_1 t1_1 t2_1 1)) (not (Load t11_1 t12_1 t13_1 t14_1 1))) )
(assert (or (not (Drive t0_1 t1_1 t2_1 1)) (not (Unload t15_1 t16_1 t17_1 t18_1 1))) )
(assert (or (not (Drop t3_1 t4_1 t5_1 t6_1 1)) (not (Lift t7_1 t8_1 t9_1 t10_1 1))) )
(assert (or (not (Drop t3_1 t4_1 t5_1 t6_1 1)) (not (Load t11_1 t12_1 t13_1 t14_1 1))) )
(assert (or (not (Drop t3_1 t4_1 t5_1 t6_1 1)) (not (Unload t15_1 t16_1 t17_1 t18_1 1))) )
(assert (or (not (Lift t7_1 t8_1 t9_1 t10_1 1)) (not (Load t11_1 t12_1 t13_1 t14_1 1))) )
(assert (or (not (Lift t7_1 t8_1 t9_1 t10_1 1)) (not (Unload t15_1 t16_1 t17_1 t18_1 1))) )
(assert (or (not (Load t11_1 t12_1 t13_1 t14_1 1)) (not (Unload t15_1 t16_1 t17_1 t18_1 1))) )
(assert (and (= (on crate0 2) pallet2) (= (on crate1 2) pallet1)))
(check-sat)
